c Sudoku solution
p cnf 729 0
241 0
254 0
286 0
337 0
355 0
369 0
383 0
391 0
497 0
523 0
544 0
575 0
618 0
632 0
699 0
721 0
736 0
749 0
764 0
824 0
842 0
867 0
277 0
896 0
998 0
758 0
838 0
793 0
772 0
194 0
378 0
179 0
314 0
322 0
346 0
912 0
434 0
871 0
853 0
945 0
933 0
974 0
684 0
295 0
182 0
157 0
262 0
213 0
239 0
228 0
135 0
111 0
126 0
531 0
481 0
647 0
517 0
416 0
625 0
429 0
465 0
452 0
559 0
473 0
676 0
448 0
663 0
651 0
566 0
715 0
819 0
927 0
787 0
885 0
989 0
143 0
168 0
956 0
961 0
588 0
592 0
